     Program PWSCF v.6.5 starts on 27Feb2020 at 16:17:26

     Reading input from Si.pwi

     Current dimensions of program PWSCF are:
     Max number of different atomic species (ntypx) = 10
     Max number of k-points (npk) =  40000
     Max angular momentum in pseudopotentials (lmaxx) =  3

     Subspace diagonalization in iterative solution of the eigenvalue problem:
     a serial algorithm will be used

     bravais-lattice index     =            2
     lattice parameter (alat)  =      14.0000  a.u.
     unit-cell volume          =     686.0000 (a.u.)^3
     number of atoms/cell      =            2
     number of atomic types    =            1
     number of electrons       =         8.00
     number of Kohn-Sham states=            4
     kinetic-energy cutoff     =      30.0000  Ry
     charge density cutoff     =     120.0000  Ry
     convergence threshold     =      1.0E-07
     mixing beta               =       0.7000
     number of iterations used =            8  plain     mixing
     Exchange-correlation= PBE
                           (   1   4   3   4   0   0   0)
     nstep                     =           50

     celldm(1)=  14.000000  celldm(2)=   0.000000  celldm(3)=   0.000000
     celldm(4)=   0.000000  celldm(5)=   0.000000  celldm(6)=   0.000000

     crystal axes: (cart. coord. in units of alat)
               a(1) = (  -0.500000   0.000000   0.500000 )
               a(2) = (   0.000000   0.500000   0.500000 )
               a(3) = (  -0.500000   0.500000   0.000000 )

     reciprocal axes: (cart. coord. in units 2 pi/alat)
               b(1) = ( -1.000000 -1.000000  1.000000 )
               b(2) = (  1.000000  1.000000  1.000000 )
               b(3) = ( -1.000000  1.000000 -1.000000 )

     PseudoPot. # 1 for Si read from file:
     /Users/matt/QE/SSSP_precision_pseudos/Si.pbe-n-rrkjus_psl.1.0.0.UPF
     MD5 check sum: 0b0bb1205258b0d07b9f9672cf965d36
     Pseudo is Ultrasoft + core correction, Zval =  4.0
     Generated using "atomic" code by A. Dal Corso v.5.1
     Using radial grid of 1141 points,  6 beta functions with:
                l(1) =   0
                l(2) =   0
                l(3) =   1
                l(4) =   1
                l(5) =   2
                l(6) =   2
     Q(r) pseudized with 0 coefficients

     atomic species   valence    mass     pseudopotential
        Si             4.00    28.08500     Si( 1.00)

     48 Sym. Ops., with inversion, found (24 have fractional translation)

   Cartesian axes

     site n.     atom                  positions (alat units)
         1           Si  tau(   1) = (   0.0000000   0.0000000   0.0000000  )
         2           Si  tau(   2) = (   0.2500000   0.2500000   0.2500000  )

     number of k points=     8
                       cart. coord. in units 2pi/alat
        k(    1) = (   0.0000000   0.0000000   0.0000000), wk =   0.0312500
        k(    2) = (  -0.2500000   0.2500000  -0.2500000), wk =   0.2500000
        k(    3) = (   0.5000000  -0.5000000   0.5000000), wk =   0.1250000
        k(    4) = (   0.0000000   0.5000000   0.0000000), wk =   0.1875000
        k(    5) = (   0.7500000  -0.2500000   0.7500000), wk =   0.7500000
        k(    6) = (   0.5000000   0.0000000   0.5000000), wk =   0.3750000
        k(    7) = (   0.0000000  -1.0000000   0.0000000), wk =   0.0937500
        k(    8) = (  -0.5000000  -1.0000000   0.0000000), wk =   0.1875000

     Check: negative core charge=   -0.000003

     Initial potential from superposition of free atoms

     starting charge    7.99888, renormalised to    8.00000
     Starting wfcs are    8 randomized atomic wfcs

     Self-consistent Calculation

     iteration #  1     ecut=    30.00 Ry     beta= 0.70
     Davidson diagonalization with overlap
     ethr =  1.00E-02,  avg # of iterations =  1.0

     Threshold (ethr) on eigenvalues was too large:
     Diagonalizing with lowered threshold

     Davidson diagonalization with overlap
     ethr =  1.37E-04,  avg # of iterations =  3.0

     total energy              =     -22.51793191 Ry
     Harris-Foulkes estimate   =     -22.51728778 Ry
     estimated scf accuracy    <       0.01257075 Ry

[...]

     iteration #  4     ecut=    30.00 Ry     beta= 0.70
     Davidson diagonalization with overlap
     c_bands:  1 eigenvalues not converged
     ethr =  1.24E-07,  avg # of iterations =  7.2

[...]

     End of self-consistent calculation

          k = 0.0000 0.0000 0.0000 (  1917 PWs)   bands (ev):

    -8.0080  -3.9984  -0.2014  -0.2014

          k =-0.2500 0.2500-0.2500 (  1910 PWs)   bands (ev):

[...]

     highest occupied level (ev):    -0.2014

!    total energy              =     -22.51863019 Ry
     Harris-Foulkes estimate   =     -22.51863021 Ry
     estimated scf accuracy    <       0.00000004 Ry

     The total energy is the sum of the following terms:

     one-electron contribution =      -0.82192961 Ry
     hartree contribution      =       2.17849033 Ry
     xc contribution           =     -11.56250969 Ry
     ewald contribution        =     -12.31268123 Ry

     convergence has been achieved in   7 iterations

     Forces acting on atoms (cartesian axes, Ry/au):

     atom    1 type  1   force =     0.00000000   -0.00000000   -0.00000000
     atom    2 type  1   force =    -0.00000000    0.00000000    0.00000000

     Total force =     0.000000     Total SCF correction =     0.000000

     Computing stress (Cartesian axis) and pressure

          total   stress  (Ry/bohr**3)                   (kbar)     P=      -89.19
  -0.00060629   0.00000000   0.00000000          -89.19        0.00        0.00
   0.00000000  -0.00060629  -0.00000000            0.00      -89.19       -0.00
   0.00000000  -0.00000000  -0.00060629            0.00       -0.00      -89.19

     BFGS Geometry Optimization

     number of scf cycles    =   1
     number of bfgs steps    =   0

     enthalpy new            =     -22.5186301926 Ry

     new trust radius        =       0.0793982340 bohr
ibrav =      2
 celldm(1) =     13.78779935
Input lattice vectors:
    -0.49242140    -0.00000000     0.49242140
     0.00000000     0.49242140     0.49242140
    -0.49242140     0.49242140    -0.00000000
New lattice vectors in INITIAL alat:
    -0.49242140     0.00000000     0.49242140
     0.00000000     0.49242140     0.49242140
    -0.49242140     0.49242140     0.00000000
New lattice vectors in NEW alat (for information only):
    -0.50000000     0.00000000     0.50000000
     0.00000000     0.50000000     0.50000000
    -0.50000000     0.50000000     0.00000000
Discrepancy in bohr =     0.000000    0.000000    0.000000
     new conv_thr            =       0.0000001000 Ry

     new unit-cell volume =    655.27692 a.u.^3 (    97.10202 Ang^3 )
     density =      0.96056 g/cm^3

CELL_PARAMETERS (alat= 14.00000006)
  -0.492421403   0.000000000   0.492421403
   0.000000000   0.492421403   0.492421403
  -0.492421403   0.492421403   0.000000000

ATOMIC_POSITIONS (angstrom)
Si            0.0000000000       -0.0000000000       -0.0000000000
Si            1.8240472924        1.8240472924        1.8240472924

     Writing output data file ./Si/Si.save/
     NEW-OLD atomic charge density approx. for the potential

     Check: negative core charge=   -0.000002
     extrapolated charge    7.62497, renormalised to    8.00000

[...]

     enthalpy old            =     -22.5186301926 Ry
     enthalpy new            =     -22.5378300853 Ry

     CASE: enthalpy_new < enthalpy_old

     WARNING: bfgs curvature condition failed, Theta= 0.777
     new trust radius        =       0.1181913138 bohr
ibrav =      2
 celldm(1) =     13.46949829
Input lattice vectors:
    -0.48105351    -0.00000000     0.48105351
     0.00000000     0.48105351     0.48105351
    -0.48105351     0.48105351    -0.00000000
New lattice vectors in INITIAL alat:
    -0.48105351     0.00000000     0.48105351
     0.00000000     0.48105351     0.48105351
    -0.48105351     0.48105351     0.00000000
New lattice vectors in NEW alat (for information only):
    -0.50000000     0.00000000     0.50000000
     0.00000000     0.50000000     0.50000000
    -0.50000000     0.50000000     0.00000000
Discrepancy in bohr =     0.000000    0.000000    0.000000
     new conv_thr            =       0.0000000010 Ry

[...]

     WARNING: bfgs curvature condition failed, Theta= 0.695
     uphill step: resetting bfgs history

[...]

     WARNING: bfgs curvature condition failed, Theta= 0.580
     uphill step: resetting bfgs history

[...]

     Writing output data file ./Si/Si.save/
     NEW-OLD atomic charge density approx. for the potential
     extrapolated charge    6.57376, renormalised to    8.00000

[...]

     Writing output data file ./Si/Si.save/
     NEW-OLD atomic charge density approx. for the potential
     extrapolated charge    5.58044, renormalised to    8.00000

[...]

     WARNING: bfgs curvature condition failed, Theta= 0.810
     new trust radius        =       0.0002435119 bohr
ibrav =      2
 celldm(1) =     10.40946738
Input lattice vectors:
    -0.37176669     0.00000000     0.37176669
     0.00000000     0.37176669     0.37176669
    -0.37176669     0.37176669    -0.00000000
New lattice vectors in INITIAL alat:
    -0.37176669     0.00000000     0.37176669
     0.00000000     0.37176669     0.37176669
    -0.37176669     0.37176669     0.00000000
New lattice vectors in NEW alat (for information only):
    -0.50000000     0.00000000     0.50000000
     0.00000000     0.50000000     0.50000000
    -0.50000000     0.50000000     0.00000000
Discrepancy in bohr =     0.000000    0.000000    0.000000
     new conv_thr            =       0.0000000010 Ry

[...]

     number of scf cycles    =  24
     number of bfgs steps    =  23

     enthalpy old            =     -22.8266551479 Ry
     enthalpy new            =     -22.8266721766 Ry

     CASE: enthalpy_new < enthalpy_old

     small trust_radius: resetting bfgs history

     new trust radius        =       0.0000308330 bohr
ibrav =      2
 celldm(1) =     10.35740995
Input lattice vectors:
    -0.36990750     0.00000000     0.36990750
     0.00000000     0.36990750     0.36990750
    -0.36990750     0.36990750     0.00000000
New lattice vectors in INITIAL alat:
    -0.36990750     0.00000000     0.36990750
     0.00000000     0.36990750     0.36990750
    -0.36990750     0.36990750     0.00000000
New lattice vectors in NEW alat (for information only):
    -0.50000000     0.00000000     0.50000000
     0.00000000     0.50000000     0.50000000
    -0.50000000     0.50000000     0.00000000
Discrepancy in bohr =     0.000000    0.000000    0.000000
     new conv_thr            =       0.0000000010 Ry

     new unit-cell volume =    277.77522 a.u.^3 (    41.16204 Ang^3 )
     density =      2.26598 g/cm^3

[...]

ATOMIC_POSITIONS (angstrom)
Si           -0.0000000000       -0.0000000000        0.0000000000
Si            1.3702263201        1.3702263201        1.3702263201

     Writing output data file ./Si/Si.save/
     NEW-OLD atomic charge density approx. for the potential

     Check: negative core charge=   -0.000001
     extrapolated charge    8.00022, renormalised to    8.00000

[...]

     Threshold (ethr) on eigenvalues was too large:
     Diagonalizing with lowered threshold

     Davidson diagonalization with overlap
     ethr =  5.67E-12,  avg # of iterations =  3.0

[...]

ibrav =      2
 celldm(1) =     10.35740995
Input lattice vectors:
    -0.36990750     0.00000000     0.36990750
     0.00000000     0.36990750     0.36990750
    -0.36990750     0.36990750     0.00000000
New lattice vectors in INITIAL alat:
    -0.36990750     0.00000000     0.36990750
     0.00000000     0.36990750     0.36990750
    -0.36990750     0.36990750     0.00000000
New lattice vectors in NEW alat (for information only):
    -0.50000000     0.00000000     0.50000000
     0.00000000     0.50000000     0.50000000
    -0.50000000     0.50000000     0.00000000
Discrepancy in bohr =     0.000000    0.000000    0.000000

     bfgs converged in  25 scf cycles and  24 bfgs steps
     (criteria: energy <  1.0E-05 Ry, force <  1.0E-04Ry/Bohr, cell <  5.0E-01kbar)

     End of BFGS Geometry Optimization

     Final enthalpy =     -22.8266721779 Ry
Begin final coordinates
     new unit-cell volume =    277.77522 a.u.^3 (    41.16204 Ang^3 )
     density =      2.26598 g/cm^3

CELL_PARAMETERS (alat= 14.00000006)
  -0.369907496   0.000000000   0.369907496
   0.000000000   0.369907496   0.369907496
  -0.369907496   0.369907496   0.000000000

ATOMIC_POSITIONS (angstrom)
Si           -0.0000000000       -0.0000000000        0.0000000000
Si            1.3702263201        1.3702263201        1.3702263201
End final coordinates

     Writing output data file ./Si/Si.save/

     Final scf calculation at the relaxed structure.
     The G-vectors are recalculated for the final unit cell
     Results may differ from those at the preceding step.

     bravais-lattice index     =            2
     lattice parameter (alat)  =      14.0000  a.u.
     unit-cell volume          =     277.7752 (a.u.)^3
     number of atoms/cell      =            2
     number of atomic types    =            1
     number of electrons       =         8.00
     number of Kohn-Sham states=            4
     kinetic-energy cutoff     =      30.0000  Ry
     charge density cutoff     =     120.0000  Ry
     convergence threshold     =      1.0E-09
     mixing beta               =       0.7000
     number of iterations used =            8  plain     mixing
     Exchange-correlation= PBE
                           (   1   4   3   4   0   0   0)

     celldm(1)=  14.000000  celldm(2)=   0.000000  celldm(3)=   0.000000
     celldm(4)=   0.000000  celldm(5)=   0.000000  celldm(6)=   0.000000

     crystal axes: (cart. coord. in units of alat)
               a(1) = (  -0.369907   0.000000   0.369907 )
               a(2) = (   0.000000   0.369907   0.369907 )
               a(3) = (  -0.369907   0.369907   0.000000 )

     reciprocal axes: (cart. coord. in units 2 pi/alat)
               b(1) = ( -1.351689 -1.351689  1.351689 )
               b(2) = (  1.351689  1.351689  1.351689 )
               b(3) = ( -1.351689  1.351689 -1.351689 )

     PseudoPot. # 1 for Si read from file:
     /Users/matt/QE/SSSP_precision_pseudos/Si.pbe-n-rrkjus_psl.1.0.0.UPF
     MD5 check sum: 0b0bb1205258b0d07b9f9672cf965d36
     Pseudo is Ultrasoft + core correction, Zval =  4.0
     Generated using "atomic" code by A. Dal Corso v.5.1
     Using radial grid of 1141 points,  6 beta functions with:
                l(1) =   0
                l(2) =   0
                l(3) =   1
                l(4) =   1
                l(5) =   2
                l(6) =   2
     Q(r) pseudized with 0 coefficients

     atomic species   valence    mass     pseudopotential
        Si             4.00    28.08500     Si( 1.00)

     48 Sym. Ops., with inversion, found (24 have fractional translation)

   Cartesian axes

     site n.     atom                  positions (alat units)
         1           Si  tau(   1) = (  -0.0000000  -0.0000000   0.0000000  )
         2           Si  tau(   2) = (   0.1849537   0.1849537   0.1849537  )

     number of k points=     8
                       cart. coord. in units 2pi/alat
        k(    1) = (   0.0000000   0.0000000   0.0000000), wk =   0.0312500
        k(    2) = (  -0.3379223   0.3379223  -0.3379223), wk =   0.2500000
        k(    3) = (   0.6758446  -0.6758446   0.6758446), wk =   0.1250000
        k(    4) = (   0.0000000   0.6758446   0.0000000), wk =   0.1875000
        k(    5) = (   1.0137670  -0.3379223   1.0137670), wk =   0.7500000
        k(    6) = (   0.6758446   0.0000000   0.6758446), wk =   0.3750000
        k(    7) = (   0.0000000  -1.3516893   0.0000000), wk =   0.0937500
        k(    8) = (  -0.6758446  -1.3516893   0.0000000), wk =   0.1875000

     Check: negative core charge=   -0.000004

     Initial potential from superposition of free atoms

     starting charge    7.99888, renormalised to    8.00000
     Starting wfcs are    8 randomized atomic wfcs

     Self-consistent Calculation

[...]

     total energy              =     -22.82646767 Ry
     Harris-Foulkes estimate   =     -22.82646769 Ry
     estimated scf accuracy    <       0.00000003 Ry

     iteration #  7     ecut=    30.00 Ry     beta= 0.70
     Davidson diagonalization with overlap
     ethr =  3.61E-10,  avg # of iterations =  2.4

     End of self-consistent calculation

[...]

          k = 0.0000-1.3517 0.0000 (   774 PWs)   bands (ev):

[...]

          k =-0.6758-1.3517 0.0000 (   772 PWs)   bands (ev):

    -1.6218  -1.6218   2.2105   2.2105

     highest occupied level (ev):     5.9608

!    total energy              =     -22.82646768 Ry
     Harris-Foulkes estimate   =     -22.82646768 Ry
     estimated scf accuracy    <          7.2E-11 Ry

     The total energy is the sum of the following terms:

     one-electron contribution =       4.95465730 Ry
     hartree contribution      =       1.14875695 Ry
     xc contribution           =     -12.28696263 Ry
     ewald contribution        =     -16.64291930 Ry

     convergence has been achieved in   7 iterations

     Forces acting on atoms (cartesian axes, Ry/au):

     atom    1 type  1   force =    -0.00000000   -0.00000000   -0.00000000
     atom    2 type  1   force =     0.00000000    0.00000000    0.00000000

     Total force =     0.000000     Total SCF correction =     0.000000

     Computing stress (Cartesian axis) and pressure

          total   stress  (Ry/bohr**3)                   (kbar)     P=        0.25
   0.00000173  -0.00000000  -0.00000000            0.25       -0.00       -0.00
  -0.00000000   0.00000173   0.00000000           -0.00        0.25        0.00
  -0.00000000   0.00000000   0.00000173           -0.00        0.00        0.25

     Writing output data file ./Si/Si.save/

     General routines

     Parallel routines

   This run was terminated on:  16:19:41  27Feb2020

   JOB DONE.